Minimize
+ 3 x_0 + 5 x_1
+ 4 x_2 + 2 x_3
+ 5 x_4 + 3 x_5
+ 2 x_6 + 4 x_7
+ 6 x_8 + 3 x_9
+ 1 x_10 + 1 x_11
+ 1 x_12 + 1 x_13
+ 1 x_14 + 1 x_15
+ 1 x_16 + 1 x_17
+ 1 x_18 + 1 x_19
+ 142 x_20 + 165 x_21
+ 183 x_22 + 121 x_23
+ 167 x_24 + 145 x_25
+ 134 x_26 + 162 x_27
+ 177 x_28 + 139 x_29
subject to
constr_0: + x_0 - x_10 = 18
constr_1: + x_1 + x_10 - x_11 = 24
constr_2: + x_2 - x_12 = 15
constr_3: + x_3 + x_12 - x_13 = 22
constr_4: + x_4 - x_14 = 20
constr_5: + x_5 + x_14 - x_15 = 17
constr_6: + x_6 - x_16 = 25
constr_7: + x_7 + x_16 - x_17 = 19
constr_8: + x_8 - x_18 = 21
constr_9: + x_9 + x_18 - x_19 = 23
constr_10: + x_10 + x_12 + x_14 + x_16 + x_18 <= 100
constr_11: + x_11 + x_13 + x_15 + x_17 + x_19 <= 100
constr_12: + x_0 - 80 x_20 <= 0
constr_13: + x_1 - 80 x_21 <= 0
constr_14: + x_2 - 80 x_22 <= 0
constr_15: + x_3 - 80 x_23 <= 0
constr_16: + x_4 - 80 x_24 <= 0
constr_17: + x_5 - 80 x_25 <= 0
constr_18: + x_6 - 80 x_26 <= 0
constr_19: + x_7 - 80 x_27 <= 0
constr_20: + x_8 - 80 x_28 <= 0
constr_21: + x_9 - 80 x_29 <= 0
constr_22: + 1 x_0 + 0 x_20 + 1 x_2 + 0 x_22 + 1 x_4 + 0 x_24 + 1 x_6 + 0 x_26 + 1 x_8 + 0 x_28 <= 90
constr_23: + 1 x_1 + 0 x_21 + 1 x_3 + 0 x_23 + 1 x_5 + 0 x_25 + 1 x_7 + 0 x_27 + 1 x_9 + 0 x_29 <= 90
Binaries
x_20
x_21
x_22
x_23
x_24
x_25
x_26
x_27
x_28
x_29
End
